000 000 000 000 000 -99 -99 000 000 -99 -99 -99 -99 000 000 000 000 000 000 001 001 002 003 009 041 042 021 011 019 008 002
000 000 000 000 000 000 -99 000 000 -99 -99 -99 -99 000 000 000 000 000 000 000 000 001 003 009 032 018 012 007 024 004 001
000 000 000 000 000 000 -99 000 000 000 -99 -99 -99 -99 000 000 000 000 000 000 000 001 003 014 028 013 004 001 005 003 001
000 000 000 000 000 000 000 000 000 000 -99 -99 -99 -99 000 000 000 -99 000 000 000 001 001 006 009 004 001 000 003 001 000
000 000 000 000 000 000 000 000 000 000 -99 -99 000 000 -99 000 000 -99 -99 000 000 000 001 004 004 001 000 000 001 001 -99
000 000 000 000 000 000 000 000 000 000 -99 -99 000 000 000 000 000 000 -99 -99 000 000 000 001 001 000 -99 000 -99 001 -99
000 000 000 000 000 000 000 000 -99 000 -99 -99 -99 000 000 000 000 000 -99 -99 000 000 000 000 000 000 -99 -99 -99 -99 -99
000 000 000 000 000 000 000 000 000 -99 -99 -99 -99 000 -99 -99 -99 000 -99 -99 000 000 000 000 000 000 -99 -99 -99 -99 -99
000 000 000 000 000 000 -99 000 000 000 -99 -99 -99 -99 -99 -99 -99 000 000 -99 000 000 000 000 000 000 -99 -99 -99 000 000
000 000 000 000 000 000 -99 -99 000 000 000 000 000 -99 -99 000 -99 000 000 -99 000 000 000 000 000 000 000 -99 000 000 000
000 000 000 000 000 000 000 000 000 000 000 000 000 -99 -99 000 000 000 000 -99 -99 000 000 000 000 000 000 -99 000 000 000
000 000 000 000 000 000 000 000 000 000 000 000 000 -99 -99 000 000 000 000 000 -99 -99 -99 000 000 000 -99 -99 000 000 000
000 000 000 000 000 000 000 000 000 000 000 000 -99 -99 -99 000 000 000 000 000 -99 -99 -99 -99 000 000 000 -99 -99 000 000
000 000 000 000 000 000 000 000 000 -99 -99 000 000 -99 -99 -99 000 000 -99 000 -99 -99 -99 -99 000 000 000 -99 -99 -99 000
000 -99 000 000 000 000 000 000 000 -99 -99 -99 -99 000 -99 -99 000 -99 -99 -99 -99 -99 -99 -99 000 000 000 000 -99 000 000
-99 -99 -99 000 000 000 000 000 000 -99 -99 -99 -99 000 -99 -99 -99 -99 -99 -99 -99 -99 -99 000 000 000 000 000 -99 -99 000
000 -99 -99 -99 000 000 000 000 000 -99 -99 -99 -99 000 000 -99 000 000 -99 -99 -99 -99 000 000 000 000 000 000 -99 000 000
000 000 000 -99 -99 -99 000 000 000 -99 -99 -99 -99 000 000 -99 000 000 -99 -99 -99 -99 000 -99 000 000 000 000 -99 000 000
000 000 000 000 -99 -99 -99 000 000 -99 -99 -99 -99 -99 -99 -99 001 000 -99 -99 -99 -99 -99 -99 -99 000 -99 -99 -99 -99 000
000 000 000 000 -99 -99 -99 000 000 000 -99 -99 -99 -99 -99 -99 001 000 -99 -99 -99 -99 -99 -99 -99 -99 -99 -99 -99 -99 -99
000 000 000 000 000 000 -99 000 000 000 -99 -99 -99 -99 000 000 000 000 000 000 000 -99 -99 -99 -99 -99 -99 -99 -99 -99 -99
000 000 000 000 000 000 000 000 000 000 -99 -99 -99 -99 000 000 000 000 000 000 000 000 000 -99 -99 -99 -99 -99 -99 -99 -99
000 000 000 000 000 000 000 000 000 000 -99 -99 -99 -99 000 000 000 000 000 000 000 000 000 -99 -99 -99 -99 -99 -99 -99 -99
000 000 000 000 000 000 000 000 000 000 -99 -99 -99 000 000 000 000 000 000 000 000 000 000 -99 -99 -99 -99 -99 -99 -99 -99
000 000 000 000 000 000 000 000 000 000 000 -99 -99 -99 000 000 000 000 000 000 000 000 000 -99 -99 -99 -99 -99 -99 -99 -99
000 000 000 000 000 000 000 000 000 000 000 -99 -99 -99 000 000 000 000 000 000 000 000 000 -99 -99 -99 -99 -99 -99 -99 -99
000 000 000 000 000 000 -99 000 000 000 -99 -99 -99 -99 000 000 000 000 000 000 -99 000 000 -99 -99 -99 -99 -99 -99 -99 -99
000 000 000 000 000 000 000 000 000 000 -99 -99 -99 -99 000 000 000 000 000 -99 -99 000 000 -99 -99 -99 -99 -99 -99 -99 -99
000 002 000 000 000 000 000 000 000 -99 -99 -99 -99 -99 000 000 000 000 000 -99 000 000 -99 -99 -99 -99 -99 -99 -99 -99 -99
003 010 000 000 000 000 000 000 000 -99 -99 -99 -99 000 000 000 000 000 000 000 000 000 -99 -99 -99 -99 -99 -99 -99 -99 -99
005 014 000 000 000 000 000 000 000 -99 -99 -99 -99 000 000 000 000 000 000 000 -99 -99 -99 -99 000 000 -99 -99 -99 -99 -99
003 002 000 000 000 000 000 000 000 -99 -99 -99 -99 000 000 -99 000 000 000 -99 -99 -99 000 000 000 000 -99 -99 -99 -99 -99
002 000 000 000 000 000 000 000 000 -99 -99 -99 -99 -99 000 -99 000 000 000 -99 -99 -99 000 000 000 000 -99 -99 -99 -99 -99
001 000 000 000 000 000 000 000 000 000 -99 -99 -99 000 000 000 000 000 000 -99 -99 000 000 000 000 000 000 000 000 -99 000
000 000 000 000 000 000 000 000 000 000 -99 -99 -99 000 000 000 000 000 -99 000 000 -99 000 000 000 000 000 000 000 -99 000
000 000 000 000 000 000 000 000 000 000 -99 -99 000 000 000 000 000 000 000 000 000 -99 -99 -99 -99 000 000 -99 000 000 -99
000 000 -99 000 000 -99 -99 000 000 000 -99 -99 000 000 000 000 000 000 000 000 000 -99 -99 -99 000 000 000 -99 -99 -99 -99
000 -99 000 000 000 -99 -99 000 000 -99 -99 -99 -99 000 000 000 000 000 000 000 000 -99 -99 000 000 000 -99 -99 -99 -99 -99
000 -99 000 000 000 000 -99 000 -99 -99 -99 -99 -99 000 000 000 000 000 000 -99 000 -99 000 000 000 000 -99 -99 -99 -99 -99
-99 000 000 000 000 -99 -99 -99 -99 -99 -99 000 000 000 000 000 000 -99 -99 -99 000 -99 000 000 000 000 -99 -99 -99 -99 -99
000 000 000 000 000 -99 -99 -99 -99 -99 000 000 000 000 000 000 -99 -99 -99 000 000 -99 000 000 -99 -99 -99 -99 -99 -99 -99
000 000 -99 000 -99 -99 -99 000 -99 000 000 000 000 000 -99 -99 -99 -99 000 000 000 -99 000 -99 -99 -99 -99 -99 -99 -99 -99
000 000 -99 -99 -99 000 -99 000 -99 000 000 000 000 000 -99 -99 -99 -99 000 000 000 -99 -99 -99 -99 000 -99 -99 -99 -99 -99
000 -99 -99 -99 -99 000 000 -99 -99 -99 -99 000 000 000 000 000 -99 000 000 000 000 -99 -99 -99 000 000 -99 -99 -99 -99 -99
-99 -99 -99 -99 -99 -99 -99 -99 -99 -99 -99 000 000 -99 000 -99 -99 -99 000 000 -99 -99 -99 000 000 -99 -99 000 -99 -99 -99
-99 -99 -99 -99 -99 -99 -99 -99 -99 -99 -99 000 000 -99 -99 -99 -99 000 000 000 -99 -99 -99 000 000 -99 -99 000 -99 -99 -99
-99 -99 -99 -99 -99 -99 -99 -99 -99 -99 -99 000 000 -99 -99 -99 -99 000 000 000 -99 -99 -99 000 -99 -99 -99 -99 -99 -99 -99
-99 -99 -99 -99 -99 -99 -99 -99 -99 -99 -99 -99 -99 -99 -99 -99 -99 000 -99 -99 -99 000 -99 000 -99 -99 -99 -99 -99 -99 -99
-99 -99 -99 -99 -99 -99 -99 -99 -99 -99 -99 -99 -99 -99 -99 -99 -99 000 -99 -99 -99 000 000 -99 -99 -99 -99 000 -99 -99 -99
-99 -99 -99 -99 -99 -99 -99 -99 -99 -99 -99 -99 -99 -99 -99 -99 -99 000 -99 -99 -99 -99 -99 -99 -99 -99 -99 000 -99 -99 -99
-99 -99 -99 -99 -99 -99 -99 -99 -99 -99 -99 -99 -99 -99 -99 -99 000 000 -99 -99 -99 -99 -99 -99 -99 -99 -99 -99 -99 -99 -99
-99 -99 -99 -99 -99 -99 -99 -99 -99 -99 -99 -99 -99 -99 -99 -99 -99 000 -99 -99 -99 -99 -99 -99 -99 -99 -99 -99 -99 -99 -99
-99 -99 -99 -99 -99 -99 -99 -99 -99 -99 -99 -99 -99 -99 -99 -99 -99 000 000 -99 -99 -99 -99 -99 -99 -99 -99 -99 -99 -99 -99
-99 -99 -99 -99 -99 -99 -99 -99 -99 -99 -99 -99 -99 -99 -99 -99 -99 000 -99 -99 -99 -99 -99 -99 -99 -99 -99 -99 -99 -99 -99
-99 -99 -99 -99 -99 -99 -99 -99 -99 -99 -99 -99 -99 -99 -99 -99 -99 -99 -99 -99 -99 -99 -99 -99 -99 -99 -99 -99 -99 -99 -99
